77 77
8 31
20 40
38 34
27 62
12 43
1 64
37 4
33 66
4 42
11 30
34 45
32 54
31 46
30 63
33 72
11 11
27 58
34 25
17 48
6 41
17 73
8 44
9 70
36 13
36 53
29 38
37 18
15 57
25 61
10 2
35 60
18 55
24 77
28 20
16 51
18 3
5 71
14 36
3 17
25 39
21 16
13 27
19 52
24 35
38 5
2 9
19 69
22 15
6 67
15 50
4 49
12 26
14 6
23 10
32 28
28 37
22 12
10 56
35 24
7 1
5 21
3 65
1 75
26 29
9 74
1 47
2 19
26 33
30 23
23 14
13 8
29 68
16 7
20 59
21 76
7 22
31 32
